experiments/sat_smt/run/sat-l/results/andy.res
solved=true
solvingTime=247.6370086669921875
nActions=19