experiments/sat_smt/run/sat-l/results/andy.out
Timesteps: 1
s UNSATISFIABLE
real 0.18
user 0.00
sys 0.00
Timesteps: 2
s UNSATISFIABLE
real 0.13
user 0.02
sys 0.00
Timesteps: 3
s UNSATISFIABLE
real 0.12
user 0.04
sys 0.00
Timesteps: 4
s UNSATISFIABLE
real 0.22
user 0.13
sys 0.00
Timesteps: 5
s UNSATISFIABLE
real 0.34
user 0.28
sys 0.00
Timesteps: 6
s UNSATISFIABLE
real 1.15
user 1.05
sys 0.01
Timesteps: 7
s UNSATISFIABLE
real 1.70
user 1.60
sys 0.01
Timesteps: 8
s UNSATISFIABLE
real 3.31
user 3.20
sys 0.01
Timesteps: 9
s UNSATISFIABLE
real 6.65
user 6.50
sys 0.01
Timesteps: 10
s UNSATISFIABLE
real 8.28
user 8.11
sys 0.02
Timesteps: 11
s UNSATISFIABLE
real 8.60
user 8.39
sys 0.03
Timesteps: 12
s UNSATISFIABLE
real 10.11
user 9.91
sys 0.02
Timesteps: 13
s UNSATISFIABLE
real 11.27
user 11.05
sys 0.03
Timesteps: 14
s UNSATISFIABLE
real 14.48
user 14.24
sys 0.03
Timesteps: 15
s UNSATISFIABLE
real 20.95
user 20.61
sys 0.04
Timesteps: 16
s UNSATISFIABLE
real 28.79
user 28.42
sys 0.06
Timesteps: 17
s UNSATISFIABLE
real 34.31
user 33.93
sys 0.06
Timesteps: 18
s UNSATISFIABLE
real 59.48
user 58.93
sys 0.09
Timesteps: 19
s SATISFIABLE
real 38.55
user 38.10
sys 0.08
